Route 1: 0 34 68 58 3 98 93 84 29 2 96 75 0
Route 2: 0 63 1 37 80 45 44 99 71 90 8 52 0
Route 3: 0 42 65 41 67 94 23 11 12 0
Route 4: 0 27 32 38 5 79 76 21 62 43 69 0
Route 5: 0 97 81 100 49 77 87 0
Route 6: 0 61 60 48 18 28 6 26 30 0
Route 7: 0 15 10 51 85 4 36 35 40 59 95 16 0
Route 8: 0 56 91 14 55 22 86 82 17 83 13 46 0
Route 9: 0 89 39 88 19 20 33 0
Route 10: 0 73 47 54 66 53 9 24 7 78 25 57 72 0
Route 11: 0 50 31 92 64 74 70 0
